p tw 40 84
0 1
0 10
0 12
0 27
0 21
0 37
0 13
1 15
1 21
1 20
2 3
2 18
2 32
2 11
2 10
2 25
2 34
3 25
3 17
3 30
4 5
4 20
4 36
4 9
5 35
5 32
5 13
5 27
6 7
6 17
6 33
6 32
7 17
7 24
7 16
7 8
8 9
8 15
8 10
8 23
8 21
9 28
10 17
11 12
11 17
11 34
11 14
12 18
12 15
12 14
13 14
13 20
13 26
13 27
13 34
14 28
14 25
14 23
15 16
15 24
16 30
17 21
18 19
18 29
19 20
19 31
19 33
19 34
21 22
21 36
22 30
22 24
23 24
24 25
24 33
26 32
26 39
27 32
28 38
29 30
29 33
30 31
32 35
32 34
